VertexID	Color
1	1
2	1
3	1
6	1
7	1
8	1
12	1
15	1
16	1
19	1
24	1
26	1
28	1
30	1
32	1
33	1
35	1
36	1
37	1
45	1
54	1
61	1
66	1
5	2
4	2
10	2
14	2
17	2
42	2
48	2
51	2
53	2
65	2
70	2
11	3
9	3
20	3
27	3
43	3
46	3
58	3
63	3
71	3
13	4
18	4
21	4
41	4
69	4
72	4
25	5
22	5
23	5
31	5
47	5
56	5
74	5
29	6
34	6
38	6
57	6
40	7
39	7
44	7
60	7
62	7
49	8
52	8
64	8
67	8
68	8
50	9
73	9
55	10
59	11
